<?xml version = "1.0" standalone="yes"?>
<!-- This file has been generated by DOcplex version 2.23.222  -->
<CPLEXSolution version="1.0">
 <header
   problemName="CVRP"
   objectiveValue="17947.4"
  />
 <variables>
  <variable name="x_0_2" index="1" value="1.00000"/>
  <variable name="x_0_5" index="4" value="1.00000"/>
  <variable name="x_0_9" index="8" value="1.00000"/>
  <variable name="x_0_11" index="10" value="1.00000"/>
  <variable name="x_0_13" index="12" value="1.00000"/>
  <variable name="x_0_14" index="13" value="1.00000"/>
  <variable name="x_0_15" index="14" value="1.00000"/>
  <variable name="x_0_17" index="16" value="1.00000"/>
  <variable name="x_0_18" index="17" value="1.00000"/>
  <variable name="x_0_19" index="18" value="1.00000"/>
  <variable name="x_0_20" index="19" value="1.00000"/>
  <variable name="x_0_21" index="20" value="1.00000"/>
  <variable name="x_0_22" index="21" value="1.00000"/>
  <variable name="x_0_24" index="23" value="1.00000"/>
  <variable name="x_0_25" index="24" value="1.00000"/>
  <variable name="x_0_27" index="26" value="1.00000"/>
  <variable name="x_1_0" index="28" value="1.00000"/>
  <variable name="x_2_8" index="63" value="1.00000"/>
  <variable name="x_3_0" index="84" value="1.00000"/>
  <variable name="x_4_0" index="112" value="1.00000"/>
  <variable name="x_5_0" index="140" value="1.00000"/>
  <variable name="x_6_16" index="183" value="1.00000"/>
  <variable name="x_7_0" index="196" value="1.00000"/>
  <variable name="x_8_0" index="224" value="1.00000"/>
  <variable name="x_9_0" index="252" value="1.00000"/>
  <variable name="x_10_26" index="305" value="1.00000"/>
  <variable name="x_11_12" index="319" value="1.00000"/>
  <variable name="x_12_0" index="336" value="1.00000"/>
  <variable name="x_13_10" index="374" value="1.00000"/>
  <variable name="x_14_0" index="392" value="1.00000"/>
  <variable name="x_15_3" index="423" value="1.00000"/>
  <variable name="x_16_0" index="448" value="1.00000"/>
  <variable name="x_17_28" index="503" value="1.00000"/>
  <variable name="x_18_0" index="504" value="1.00000"/>
  <variable name="x_19_23" index="554" value="1.00000"/>
  <variable name="x_20_0" index="560" value="1.00000"/>
  <variable name="x_21_4" index="592" value="1.00000"/>
  <variable name="x_22_0" index="616" value="1.00000"/>
  <variable name="x_23_7" index="651" value="1.00000"/>
  <variable name="x_24_6" index="678" value="1.00000"/>
  <variable name="x_25_0" index="700" value="1.00000"/>
  <variable name="x_26_0" index="728" value="1.00000"/>
  <variable name="x_27_0" index="756" value="1.00000"/>
  <variable name="x_28_1" index="785" value="1.00000"/>
  <variable name="u_1" index="812" value="20.00000"/>
  <variable name="u_2" index="813" value="4.00000"/>
  <variable name="u_3" index="814" value="20.00000"/>
  <variable name="u_4" index="815" value="20.00000"/>
  <variable name="u_5" index="816" value="17.00000"/>
  <variable name="u_6" index="817" value="17.00000"/>
  <variable name="u_7" index="818" value="17.00000"/>
  <variable name="u_8" index="819" value="20.00000"/>
  <variable name="u_9" index="820" value="17.00000"/>
  <variable name="u_10" index="821" value="19.00000"/>
  <variable name="u_11" index="822" value="12.00000"/>
  <variable name="u_12" index="823" value="20.00000"/>
  <variable name="u_13" index="824" value="12.00000"/>
  <variable name="u_14" index="825" value="16.00000"/>
  <variable name="u_15" index="826" value="7.00000"/>
  <variable name="u_16" index="827" value="19.00000"/>
  <variable name="u_17" index="828" value="4.00000"/>
  <variable name="u_18" index="829" value="16.00000"/>
  <variable name="u_19" index="830" value="6.00000"/>
  <variable name="u_20" index="831" value="17.00000"/>
  <variable name="u_21" index="832" value="7.00000"/>
  <variable name="u_22" index="833" value="17.00000"/>
  <variable name="u_23" index="834" value="16.00000"/>
  <variable name="u_24" index="835" value="8.00000"/>
  <variable name="u_25" index="836" value="18.00000"/>
  <variable name="u_26" index="837" value="20.00000"/>
  <variable name="u_27" index="838" value="20.00000"/>
  <variable name="u_28" index="839" value="18.00000"/>
 </variables>
</CPLEXSolution>
